&GLOBAL
  PROJECT METADYN
  PRINT_LEVEL LOW
  RUN_TYPE MD
&END GLOBAL

&FORCE_EVAL
  METHOD QMMM
  STRESS_TENSOR ANALYTICAL
  &DFT
    CHARGE 0
    BASIS_SET_FILE_NAME  BASIS_MOLOPT
    POTENTIAL_FILE_NAME  GTH_POTENTIALS
    &QS
      METHOD GPW
      EPS_DEFAULT 1.0E-10
      EXTRAPOLATION ASPC
    &END QS
    &MGRID
       COMMENSURATE
       CUTOFF [Ry] 600
        NGRIDS 4
        REL_CUTOFF 70
    &END MGRID
    &POISSON
       PERIODIC XYZ
    &END POISSON

    &SCF
      MAX_SCF 30
      EPS_SCF 1.0E-6
      SCF_GUESS ATOMIC
      &OT
        MINIMIZER DIIS
        PRECONDITIONER FULL_SINGLE_INVERSE
      &END
      &OUTER_SCF
        EPS_SCF 1.0E-6
        MAX_SCF 10
      &END
      &PRINT
        &RESTART OFF
        &END
        &RESTART_HISTORY OFF
        &END
      &END
    &END SCF
    &XC
         &xc_functional BLYP
         &END
      &VDW_POTENTIAL
         POTENTIAL_TYPE PAIR_POTENTIAL
         &PAIR_POTENTIAL
            PARAMETER_FILE_NAME dftd3.dat
            TYPE DFTD3(BJ)
            REFERENCE_FUNCTIONAL BLYP
            R_CUTOFF [angstrom] 16
         &END
      &END VDW_POTENTIAL
    &END XC
  &END DFT
  &MM
    &FORCEFIELD
      PARMTYPE AMBER
      PARM_FILE_NAME amber.top
      &SPLINE
        EMAX_SPLINE 1.0E8
        RCUT_NB [angstrom] 10
      &END SPLINE
    &END FORCEFIELD
    &POISSON
      &EWALD
        EWALD_TYPE SPME
        ALPHA .40
        GMAX 80
      &END EWALD
    &END POISSON
  &END MM
  &SUBSYS
    &CELL
      ABC [angstrom] 60.118299999999998 60.118299999999998 60.118299999999998
      ALPHA_BETA_GAMMA 90 90 90
    &END CELL
    &TOPOLOGY
      CONN_FILE_FORMAT AMBER
      CONN_FILE_NAME amber.top
      COORD_FILE_FORMAT PDB
      COORD_FILE_NAME sys.pdb
    &END TOPOLOGY
    &KIND C
      BASIS_SET DZVP-MOLOPT-GTH-q4
      POTENTIAL GTH-BLYP-q4
    &END KIND
    &KIND N
      BASIS_SET DZVP-MOLOPT-GTH-q5
      POTENTIAL GTH-BLYP-q5
    &END KIND
    &KIND H
      BASIS_SET DZVP-MOLOPT-GTH-q1
      POTENTIAL GTH-BLYP-q1
    &END KIND
    &KIND O
      BASIS_SET DZVP-MOLOPT-GTH-q6
      POTENTIAL GTH-BLYP-q6
    &END KIND
    &KIND AU
     ELEMENT Au
    &END KIND
    &KIND AUS
     ELEMENT Au
    &END KIND
    &KIND AUL
     ELEMENT Au
    &END KIND
    &KIND CL
     ELEMENT Cl
    &END KIND

  &END SUBSYS
  &QMMM
    USE_GEEP_LIB 9
    ECOUPL GAUSS
    &CELL
      ABC 12 12 12
      ALPHA_BETA_GAMMA 90 90 90
    &END CELL
    &QM_KIND O
      MM_INDEX 8 22 23
    &END QM_KIND
    &QM_KIND C
      MM_INDEX 1 2 3 4 5 6
    &END QM_KIND
    &QM_KIND H
      MM_INDEX 9 10 11 12 13 14 15 16 17 18 19 20 21
    &END QM_KIND
    &QM_KIND N
      MM_INDEX 7
    &END QM_KIND
  &END QMMM
&END FORCE_EVAL

&MOTION
  &MD
  ENSEMBLE NVT
  TIMESTEP [fs] 0.5
  STEPS    500000
  TEMPERATURE 298
  &THERMOSTAT
    TYPE NOSE
    REGION GLOBAL
    &NOSE
      TIMECON [fs] 100.
    &END NOSE
  &END THERMOSTAT
  &END MD

  &FREE_ENERGY
    &METADYN
   USE_PLUMED .TRUE.
   PLUMED_INPUT_FILE ./plumed.dat
    &END METADYN
  &END FREE_ENERGY

   &PRINT
    &RESTART
      &EACH 
        MD 10
      &END
    &END
    &RESTART_HISTORY
      &EACH         
        MD 10000
      &END
    &END
    &TRAJECTORY   
      FORMAT PDB  
      &EACH       
        MD 10
      &END
    &END
  &END PRINT
&END MOTION

!&EXT_RESTART
!  RESTART_FILE_NAME METADYN-1.restart
!&END
