&GLOBAL
  PROJECT MONITOR
  PRINT_LEVEL LOW
  RUN_TYPE MD
&END GLOBAL

&FORCE_EVAL
  METHOD QMMM
  STRESS_TENSOR ANALYTICAL
  &DFT
    CHARGE 0
    &QS
      METHOD PM6
      &SE
         &COULOMB
           CUTOFF [angstrom] 10
         &END
         &EXCHANGE
           CUTOFF [angstrom] 10
         &END
      &END
    &END QS
    &SCF
      MAX_SCF 30
      EPS_SCF 1.0E-6
      SCF_GUESS ATOMIC
      &OT
        MINIMIZER DIIS
        PRECONDITIONER FULL_SINGLE_INVERSE
      &END
      &OUTER_SCF
        EPS_SCF 1.0E-6
        MAX_SCF 10
      &END
      &PRINT
        &RESTART OFF
        &END
        &RESTART_HISTORY OFF
        &END
      &END
    &END SCF
  &END DFT
  &MM
    &FORCEFIELD
      PARMTYPE AMBER
      PARM_FILE_NAME amber.top
      &SPLINE
        EMAX_SPLINE 1.0E8
        RCUT_NB [angstrom] 10
      &END SPLINE
    &END FORCEFIELD
    &POISSON
      &EWALD
        EWALD_TYPE SPME
        ALPHA .40
        GMAX 80
      &END EWALD
    &END POISSON
  &END MM
  &SUBSYS
    &CELL
      ABC [angstrom] 60.1183   60.1183   60.1183 
      ALPHA_BETA_GAMMA 90 90 90
      PERIODIC XYZ
    &END CELL
    &TOPOLOGY
      CONN_FILE_FORMAT AMBER
      CONN_FILE_NAME amber.top
!      COORD_FILE_NAME sys.pdb
!      COORD_FILE_FORMAT PDB
!      CONNECTIVITY OFF
    &END TOPOLOGY
    &KIND CL
     ELEMENT Cl
    &END KIND
    &KIND AU
     ELEMENT Au
    &END KIND
    &KIND AUS
     ELEMENT Au
    &END KIND
    &KIND AUL
     ELEMENT Au
    &END KIND

  &END SUBSYS
  &QMMM
    ECOUPL COULOMB
    &CELL
      ABC 15 15 15 
      ALPHA_BETA_GAMMA 90 90 90
    &END CELL
    &QM_KIND O
      MM_INDEX 8 22 23
    &END QM_KIND
    &QM_KIND C
      MM_INDEX 1 2 3 4 5 6
    &END QM_KIND
    &QM_KIND H
      MM_INDEX 9 10 11 12 13 14 15 16 17 18 19 20 21
    &END QM_KIND
    &QM_KIND N
      MM_INDEX 7
    &END QM_KIND
  &END QMMM
&END FORCE_EVAL

&MOTION
  &MD
  ENSEMBLE NVT
  TIMESTEP [fs] 0.5
  STEPS    2500000  !250000 fs = 250ps
  TEMPERATURE 298
  &THERMOSTAT
    TYPE NOSE
    REGION GLOBAL
    &NOSE
      TIMECON [fs] 100.
    &END NOSE
  &END THERMOSTAT
  &END MD

  &FREE_ENERGY
    &METADYN
   USE_PLUMED .TRUE.
   PLUMED_INPUT_FILE ./plumed.dat
    &END METADYN
  &END FREE_ENERGY

   &PRINT
    &RESTART                                    
      &EACH                                     
        MD 10
      &END
    &END
    &RESTART_HISTORY                            
      &EACH                                     
        MD 25000
      &END
    &END
    &TRAJECTORY                                 
      FORMAT PDB                                
      &EACH                                     
        MD 10
      &END
    &END
  &END PRINT
&END MOTION

&EXT_RESTART
  RESTART_FILE_NAME PDT.restart
  RESTART_COUNTERS .FALSE.
!  RESTART_THERMOSTAT .FALSE.
&END
