 # Version information for this restart file 
 # current date 2024-01-26 04:43:03.929
 # current working dir /scratch/chemistry/phd/cyz208667/work/p6-qmmm_mpc/full_lig/2-mpc_reac/7-qmmm_sim/2-sm_pdt_path
 # Program compiled at                              Thu Dec 21 13:14:43 IST 2023
 # Program compiled on                                                   khas012
 # Program compiled for                                                    local
 # Source code revision number                                       git:2caeb6f
 &GLOBAL
   PRINT_LEVEL  LOW
   PROJECT_NAME MONITOR
   RUN_TYPE  MD
 &END GLOBAL
 &MOTION
   &MD
     ENSEMBLE  NVT
     STEPS  2500000
     TIMESTEP     4.9999999999999994E-01
     STEP_START_VAL  50000
     TIME_START_VAL     2.4999999999988424E+04
     ECONS_START_VAL    -6.7527422503493085E+01
     TEMPERATURE     2.9800000000000000E+02
     &THERMOSTAT
       TYPE  NOSE
       REGION  GLOBAL
       &NOSE
         TIMECON     9.9999999999999986E+01
         &COORD
               7.0013400775517168E-02   -3.1068849771810192E+00    1.9249095891821060E+01
         &END COORD
         &VELOCITY
              -4.0110561712855621E-07    1.1642439120383236E-04    1.5425578879331192E-04
         &END VELOCITY
         &MASS
               4.1830692655940950E+08    1.6129050571020223E+04    1.6129050571020223E+04
         &END MASS
         &FORCE
               2.2590549012275365E-10   -5.4337442803256975E-08   -4.4955374982922074E-08
         &END FORCE
       &END NOSE
     &END THERMOSTAT
     &AVERAGES  T
       &RESTART_AVERAGES
         ITIMES_START  1
         AVECPU     4.0254412807710532E-01
         AVEHUGONIOT     0.0000000000000000E+00
         AVETEMP_BARO     0.0000000000000000E+00
         AVEPOT    -7.9667048647360119E+01
         AVEKIN     1.2240956849410123E+01
         AVETEMP     2.9808242445479857E+02
         AVEKIN_QM     2.2470658184190229E-01
         AVETEMP_QM     2.0567142539884494E+03
         AVEVOL     1.4662792229129148E+06
         AVECELL_A     1.1360712257464937E+02
         AVECELL_B     1.1360712257464937E+02
         AVECELL_C     1.1360712257464937E+02
         AVEALPHA     9.0000000000000000E+01
         AVEBETA     9.0000000000000000E+01
         AVEGAMMA     9.0000000000000000E+01
         AVE_ECONS     5.5587580695062506E+01
         AVE_PRESS     4.2370977511777505E+02
         AVE_PXX     4.2298112592601399E+02
       &END RESTART_AVERAGES
     &END AVERAGES
   &END MD
   &FREE_ENERGY
     &METADYN
       USE_PLUMED  T
       PLUMED_INPUT_FILE ./plumed.dat
       MIN_DISP     1.4385871463491412-315
       OLD_HILL_NUMBER  86
       OLD_HILL_STEP  87
       STEP_START_VAL  0
       NHILLS_START_VAL  0
       COLVAR_AVG_TEMPERATURE_RESTART     6.0134700169990685-154
     &END METADYN
   &END FREE_ENERGY
   &PRINT
     &TRAJECTORY  SILENT
       FORMAT  PDB
       &EACH
         MD  10
       &END EACH
     &END TRAJECTORY
     &RESTART  SILENT
       &EACH
         MD  10
       &END EACH
     &END RESTART
     &RESTART_HISTORY  SILENT
       &EACH
         MD  10000
       &END EACH
     &END RESTART_HISTORY
   &END PRINT
 &END MOTION
 &FORCE_EVAL
   METHOD  QMMM
   STRESS_TENSOR  ANALYTICAL
   &DFT
     CHARGE  0
     &SCF
       MAX_SCF  30
       EPS_SCF     9.9999999999999995E-07
       SCF_GUESS  ATOMIC
       &OT  T
         MINIMIZER  DIIS
         PRECONDITIONER  FULL_SINGLE_INVERSE
       &END OT
       &OUTER_SCF  T
         EPS_SCF     9.9999999999999995E-07
         MAX_SCF  10
       &END OUTER_SCF
       &PRINT
         &RESTART  OFF
         &END RESTART
         &RESTART_HISTORY  OFF
         &END RESTART_HISTORY
       &END PRINT
     &END SCF
     &QS
       METHOD  PM6
       &SE
         &COULOMB
           CUTOFF     1.0000000000000002E+01
         &END COULOMB
         &EXCHANGE
           CUTOFF     1.0000000000000002E+01
         &END EXCHANGE
       &END SE
     &END QS
   &END DFT
   &MM
     &FORCEFIELD
       PARMTYPE  AMBER
       PARM_FILE_NAME amber.top
       &SPLINE
         RCUT_NB     1.0000000000000002E+01
         EMAX_SPLINE     1.0000000000000000E+08
       &END SPLINE
     &END FORCEFIELD
     &POISSON
       &EWALD
         EWALD_TYPE  SPME
         ALPHA     4.0000000000000008E-01
         GMAX  80
       &END EWALD
     &END POISSON
   &END MM
   &QMMM
     E_COUPL  COULOMB
     INITIAL_TRANSLATION_VECTOR    -7.1716463700882294E-01    4.7962338713472796E-01    6.9073816833055979E-01
     &QM_KIND O
       MM_INDEX  8 22 23
     &END QM_KIND
     &QM_KIND C
       MM_INDEX  1..6
     &END QM_KIND
     &QM_KIND H
       MM_INDEX  9..21
     &END QM_KIND
     &QM_KIND N
       MM_INDEX  7
     &END QM_KIND
     &CELL
       ABC     1.5000000000000002E+01    1.5000000000000002E+01    1.5000000000000002E+01
       ALPHA_BETA_GAMMA     9.0000000000000000E+01    9.0000000000000000E+01    9.0000000000000000E+01
     &END CELL
   &END QMMM
   &SUBSYS
     &CELL
       A     6.0118299999999998E+01    0.0000000000000000E+00    0.0000000000000000E+00
       B     0.0000000000000000E+00    6.0118299999999998E+01    0.0000000000000000E+00
       C     0.0000000000000000E+00    0.0000000000000000E+00    6.0118299999999998E+01
       MULTIPLE_UNIT_CELL  1 1 1
     &END CELL
     &COORD
C312    6.7433521212008998E+00    8.2809595490909143E+00    7.7984062386176500E+00
C36    6.2099275940796197E+00    6.8945708995264505E+00    8.3751613663767586E+00
C36    7.6222625611912482E+00    6.5354482715844986E+00    9.0902694747357486E+00
C312    8.7904525064411700E+00    7.4644084385393636E+00    8.7066163053252765E+00
C313    8.5894863369026400E+00    8.5328739371907059E+00    6.3476113686818909E+00
C311    7.3773144527977337E+00    9.0674980401550673E+00    5.7244304626115019E+00
N3    8.2910261698587036E+00    8.4924797694622693E+00    7.7848376841723290E+00
OH    6.2901372614897140E+00    8.4204526527252899E+00    6.4424812828626434E+00
H13    6.4657861963886338E+00    9.1613944636851148E+00    8.3642105179035173E+00
HC2    5.3515957713262416E+00    7.0177429976318395E+00    8.9864341756861954E+00
HC2    5.7703436315797685E+00    6.4357831197766293E+00    7.5280359371490277E+00
HC2    7.5209559140235065E+00    6.5403546343627381E+00    1.0285175317804043E+01
HC2    7.7465186591766884E+00    5.5226423626606236E+00    8.7628524892787674E+00
H13    8.6746388209683953E+00    8.0539311847791968E+00    9.7239871418973785E+00
H13    9.6484042286737584E+00    6.8279733988943354E+00    8.4094045585018229E+00
H12    9.5041220646244078E+00    9.0711567800102078E+00    6.1690168484992594E+00
H12    8.7233158768204468E+00    7.4057838871772042E+00    6.1482890315379137E+00
H11    6.9694162244690476E+00    8.6781040215892240E+00    4.7148246821959594E+00
H11    7.2329100342328969E+00    1.0110271130652903E+01    5.8226943197839871E+00
HO    6.4356921888654401E+00    6.5150662218242648E+00    5.3757918844670796E+00
H13    7.4176012188583602E+00    4.8897288693470982E+00    6.3678493825809834E+00
O4    7.1376173621394994E+00    6.5315030659166604E+00    5.7674267040276410E+00
O4    7.6772406622921796E+00    5.2268231202835524E+00    5.6531171160819849E+00
AU    1.1985753558715036E+01    3.9343074238733804E+00    1.1120766919464224E+01
AUS    1.1114808918070139E+01    6.6111287436825865E+00    1.0651772237669967E+01
AUS    1.2909805676325519E+01    2.2316024035225386E+00    9.1700826174005510E+00
AUL    1.2825271989129380E+01    3.7914360593741439E+00    6.3652798414449352E+00
AUL    1.1894158384244166E+01    7.0375981475902307E+00    7.3453728321722709E+00
C34    1.6155989550874182E+01    5.4194850303704023E-01    6.2032886837135672E+00
HC3    1.6638193406926909E+01    1.4436805643448527E+00    6.0804280988340382E+00
HC3    1.6262993455954160E+01    3.7703160809890551E-01    7.2933312420119600E+00
C39    1.6673910353968285E+01    5.9423478753831446E+01    5.4188878995730398E+00
H14    1.6745660261591251E+01   -4.8879601603757405E-01    4.3824036805550826E+00
H14    1.5938729977490210E+01    5.8612523251667199E+01    5.5966138848455094E+00
C38    2.0369071699626556E+01    5.8183545454119667E+01    5.6282663571328575E+00
H16    2.1345165995221848E+01    5.8722758305003829E+01    5.3431036681546837E+00
C1    1.9182681858480958E+01    5.9132629455343299E+01    5.2195123733146334E+00
N1    1.8006192469350729E+01    5.8844261384398877E+01    5.8168999448520315E+00
HN2    1.7993022848655858E+01    5.8035391157949185E+01    6.4969875515815207E+00
C35    2.0310807321919096E+01    5.6906586812182852E+01    4.8429702018572831E+00
HC6    1.9491230599191329E+01    5.6309118131532479E+01    5.1729333231403052E+00
HC6    2.0129497280146882E+01    5.7066427394477252E+01    3.7834725354875540E+00
C31    2.1694411262805161E+01    5.6190135202012144E+01    4.9894413920634744E+00
HC7    2.2425217762046554E+01    5.6736797122335879E+01    4.3805078683111196E+00
HC7    2.2152280185193874E+01    5.6197001243579777E+01    5.9884335851790835E+00
C310    2.1673065138719245E+01    5.4756476911560554E+01    4.3612610496022706E+00
H15    2.0996892454513276E+01    5.4635085850786325E+01    3.5129640795669066E+00
H15    2.2722905405117729E+01    5.4579036196737853E+01    3.9602991003823780E+00
C3    2.0596886879115029E+01    5.9099292442654544E+01    7.9099003604094031E+00
O2    2.0633842617720450E+01    2.0527059809294815E-01    7.4756510009757244E+00
OS2    2.0512686260008199E+01    5.8698470764686945E+01    9.1948708177654144E+00
C2    2.1567935892823680E+01    5.2326298928947509E+01    4.9678396236713525E+00
O3    2.1938008904448608E+01    5.1915678951486811E+01    3.8900135065029753E+00
OS1    2.1205327495912766E+01    5.1578400964622176E+01    6.1359098863104666E+00
C314    2.1197403091069742E+01    5.0111011957321118E+01    6.1529066050544401E+00
C314    2.0677283595028275E+01    5.9527123343459607E+01    1.0373474022310683E+01
O1    1.9332890308247997E+01   -7.7946806372884897E-02    4.4070371616968904E+00
N3    2.1459667069744199E+01    5.3680061040983752E+01    5.3310070996703756E+00
N2    2.0474606579487077E+01    5.8034126394707322E+01    7.0776381529807040E+00
HN1    2.1134440195043844E+01    5.3895064879464215E+01    6.2338801094131808E+00
HN3    2.0615259746391786E+01    5.7089845581116457E+01    7.5686441385622478E+00
C37    1.4643275837434954E+01    8.0512951488042062E-01    6.1121498336922544E+00
HC1    1.4265841881785422E+01    1.1490618107858057E+00    5.1159587365724919E+00
HC1    1.4183199139777669E+01   -9.6104688048075426E-02    6.4172397988994270E+00
C32    2.1255178169719112E+01    5.8391575423140416E+01    1.1340965751104832E+01
HC5    2.1388224486560873E+01    5.8862242852970688E+01    1.2310260389636191E+01
HC5    2.0577162231596088E+01    5.7630026619325953E+01    1.1570160483158897E+01
HC5    2.2195032323211890E+01    5.7929398330719899E+01    1.0998945671535719E+01
C32    2.1751260254563764E+01    5.6994123576657574E-01    1.0189260059069477E+01
HC5    2.2485983311671649E+01    4.8040986913262979E-01    9.4725044356575623E+00
HC5    2.1136708971718129E+01    1.4911303152484652E+00    9.9671095088334969E+00
HC5    2.2210498452529301E+01    8.1273006095284295E-01    1.1105267154103796E+01
C32    1.9281717065104733E+01   -1.7431350393066716E-02    1.0903313336288404E+01
HC5    1.8377877382831020E+01   -6.1476294379895657E-01    1.0873796669348755E+01
HC5    1.9358617916000341E+01    6.0546739604253403E+01    1.1870755650295070E+01
HC5    1.9077966430580751E+01    8.7716494947598489E-01    1.0372524292080328E+01
C33    2.2636966766922928E+01    4.9441362210284282E+01    5.9459160675070351E+00
HC4    2.3209726593791476E+01    4.9474638030292432E+01    6.8416387848326083E+00
HC4    2.2499727715320965E+01    4.8354696122839812E+01    5.7945029862917021E+00
HC4    2.3204973425620210E+01    4.9792355159013994E+01    5.0529823709533925E+00
C33    2.0656064330255528E+01    4.9680682692792779E+01    7.5462608791390169E+00
HC4    1.9791658866150428E+01    5.0269934835044481E+01    7.8742933253496865E+00
HC4    2.0412938041034892E+01    4.8679391032999078E+01    7.6137025759574808E+00
HC4    2.1336900952641180E+01    4.9864553524523096E+01    8.3421678228169647E+00
C33    2.0221024917828618E+01    4.9565473633510834E+01    5.0378069212788876E+00
HC4    2.0713410084830937E+01    4.9781066348912105E+01    4.0343245364167615E+00
HC4    1.9994690218312748E+01    4.8505657319060333E+01    5.0469620433193922E+00
HC4    1.9335599710007823E+01    5.0189349568271361E+01    4.9578385029446057E+00
S    1.4274369616164126E+01    2.1696716459914063E+00    7.2391979295091158E+00
C34    1.2116304822086192E+01    1.1063752065190553E+01    9.3450377519949797E+00
HC3    1.2146387253935563E+01    1.0995758129841615E+01    1.0443644738344711E+01
HC3    1.3241679810942893E+01    1.0960016059682244E+01    9.0649315900527299E+00
C39    1.1602999675080641E+01    1.2433265662961515E+01    8.8854926873267885E+00
H14    1.0620196105600467E+01    1.2775055966398268E+01    9.1916887082943539E+00
H14    1.1579774961929910E+01    1.2322700872215769E+01    7.8175371886133558E+00
C38    1.4118848473731196E+01    1.4871940951078466E+01    1.0629511855463498E+01
H16    1.5088947812584921E+01    1.4400781231864844E+01    1.0690220343165125E+01
C1    1.2956490388029138E+01    1.3920516461335241E+01    1.0533513819073729E+01
N1    1.2602005390407840E+01    1.3506084590762569E+01    9.2441820788350615E+00
HN2    1.2993361886931741E+01    1.4120907707879375E+01    8.5564413478985877E+00
C35    1.4076966245439147E+01    1.5703443550505103E+01    1.1930701068407018E+01
HC6    1.3077739469820921E+01    1.6037074956216042E+01    1.2120872967875700E+01
HC6    1.4223802548968964E+01    1.4978810658639905E+01    1.2819798035467501E+01
C31    1.5075414142978966E+01    1.6905277842810285E+01    1.2001386221305969E+01
HC7    1.5836836132656094E+01    1.6841520942811933E+01    1.1205059651077768E+01
HC7    1.4571789506973150E+01    1.7838274424606965E+01    1.1776912618015347E+01
C310    1.5715258854592454E+01    1.6962228237779076E+01    1.3421359431357743E+01
H15    1.4913919239120416E+01    1.6875012988642336E+01    1.4184366312808505E+01
H15    1.6336044884974328E+01    1.6116441447887347E+01    1.3590288898640809E+01
C3    1.4970287036778727E+01    1.5866748174268526E+01    8.5300438658581612E+00
O2    1.6081299796288267E+01    1.5284690740739974E+01    8.6749979849961569E+00
OS2    1.4600255610203810E+01    1.6716557176475042E+01    7.5097152682069970E+00
C2    1.7224379734186545E+01    1.8375073309397091E+01    1.4754458112243077E+01
O3    1.7174078758841116E+01    1.7616368826981983E+01    1.5724241367035594E+01
OS1    1.7939982475706763E+01    1.9494835879886260E+01    1.4626076979090659E+01
C314    1.8665175561166169E+01    2.0215742202185684E+01    1.5655494813723339E+01
C314    1.5528907962474426E+01    1.7351873313735890E+01    6.4895814356936938E+00
O1    1.2416605584041488E+01    1.3448396715882422E+01    1.1534708588008099E+01
N3    1.6497403951703973E+01    1.8223035041336701E+01    1.3666562582192983E+01
N2    1.3967792481449770E+01    1.5783514059100623E+01    9.4846756855649694E+00
HN1    1.6637206798336393E+01    1.8920302319010730E+01    1.2942854494163866E+01
HN3    1.2999655090090371E+01    1.6126411924476066E+01    9.2499155904268147E+00
C37    1.1308637398001132E+01    9.8018896331889618E+00    8.8892878530407717E+00
HC1    1.0341312463245913E+01    9.9515108936437109E+00    9.5326586637914161E+00
HC1    1.0986838280407042E+01    9.7998016066129026E+00    7.8405971393252942E+00
C32    1.6650647832038789E+01    1.8160340745672450E+01    7.1343032910167627E+00
HC5    1.7396004248789787E+01    1.7621015447643639E+01    7.6139100417849557E+00
HC5    1.7094890271086623E+01    1.8904785499734306E+01    6.4364973805966468E+00
HC5    1.6055204369963405E+01    1.8716687999726918E+01    7.9025158035094041E+00
C32    1.6148922558878542E+01    1.6229834817999112E+01    5.5493302962373781E+00
HC5    1.6947010752365472E+01    1.6694881234916256E+01    4.9062616704058009E+00
HC5    1.6737597047169473E+01    1.5414267280912959E+01    6.0402026589539295E+00
HC5    1.5477926829220724E+01    1.5738370929872474E+01    4.7994711707788866E+00
C32    1.4564826415823941E+01    1.8216990443958103E+01    5.6230718238262929E+00
HC5    1.3628693028604058E+01    1.7694252994038052E+01    5.2271837098610048E+00
HC5    1.4076580525744120E+01    1.9057430026318173E+01    6.1815482667442074E+00
HC5    1.5081221451510130E+01    1.8576208432815861E+01    4.6984518250266900E+00
C33    1.7874847263046188E+01    2.0293478932908016E+01    1.7038795773208761E+01
HC4    1.6867836759912691E+01    2.0543494016183757E+01    1.6807373679828562E+01
HC4    1.7987375525918431E+01    1.9303847410857291E+01    1.7534539294699954E+01
HC4    1.8409193455320089E+01    2.0936856287497047E+01    1.7782787764405850E+01
C33    2.0008435886709385E+01    1.9538337098052729E+01    1.5855177820934964E+01
HC4    2.0477112478717171E+01    1.9307557690523801E+01    1.4901227406339492E+01
HC4    2.0645639539113862E+01    2.0090097161452679E+01    1.6551923888969799E+01
HC4    1.9856596406174649E+01    1.8627496453665383E+01    1.6401922348055741E+01
C33    1.8861866251487431E+01    2.1693933523406347E+01    1.5013478164562882E+01
HC4    1.7862935250894115E+01    2.2212710345154896E+01    1.5277742033874805E+01
HC4    1.9568074211721306E+01    2.2335464139232243E+01    1.5542274322412528E+01
HC4    1.9058227644438848E+01    2.1679592987070524E+01    1.3939849529018053E+01
S    1.2251599634369477E+01    8.3341372975801491E+00    9.3639573935019822E+00
C34    1.3457795546851528E+01    5.0889075383283311E+00    3.4829495240068233E+00
HC3    1.4098481337232343E+01    5.5186121261484082E+00    2.7219844481856530E+00
HC3    1.4264828991001119E+01    4.6681965661907912E+00    4.0291728345074942E+00
C39    1.2505308588331351E+01    4.0131038271399868E+00    2.9410117004948275E+00
H14    1.2311012585208072E+01    3.2700676822024239E+00    3.6925083581380971E+00
H14    1.2837401695525857E+01    3.3946286686157219E+00    2.0794476969534657E+00
C38    8.6068039634590114E+00    4.1414246005624884E+00    3.0061817437587104E+00
H16    8.6017926050125197E+00    3.8618670597470106E+00    4.0388320038231402E+00
C1    9.9780759172400000E+00    3.6079384300297765E+00    2.4291156821436419E+00
N1    1.1170748462092835E+01    4.4713328678530049E+00    2.4865379325206178E+00
HN2    1.0990058659440530E+01    5.5053600038469170E+00    2.4960791699074409E+00
C35    7.4491714808902820E+00    3.3632583942514103E+00    2.4830411767079261E+00
HC6    7.5204081693792304E+00    3.0258116264079051E+00    1.4773110265259775E+00
HC6    7.4420666638025263E+00    2.4335414160063724E+00    3.1365917265774361E+00
C31    6.1293479914113389E+00    4.1257973324599639E+00    2.6077566600688611E+00
HC7    5.8922104266391209E+00    4.1851172778822221E+00    3.6607480834499393E+00
HC7    6.0840772058997281E+00    5.1377564132301758E+00    2.2605321516682544E+00
C310    4.9427303246427376E+00    3.3656512878224403E+00    1.9591459149663923E+00
H15    5.0297569380557441E+00    3.3837942430057164E+00    8.3374979673369665E-01
H15    4.9512242963787179E+00    2.3444399250043424E+00    2.3555008254501346E+00
C3    8.7455984882498061E+00    6.2518225913445624E+00    1.6152487307439019E+00
O2    8.8920362262347261E+00    5.8995748810813105E+00    4.4190248242689528E-01
OS2    8.9982033930131973E+00    7.6061568312057526E+00    1.9628437797241414E+00
C2    2.5064225418238482E+00    6.3266220535997213E+01    2.0371236736675491E+00
O3    2.5467008680851233E+00    6.2094803414682460E+01    1.7372231647051681E+00
OS1    1.3999146546519567E+00    6.4141124650779815E+01    1.9225675788436802E+00
C314    7.8969226800254672E-02    6.3781648777788675E+01    1.6480492875455530E+00
C314    8.9262550510897771E+00    8.7299142905913882E+00    9.2180164124211450E-01
O1    1.0158669561871099E+01    2.4990761450889103E+00    2.1847390479125357E+00
N3    3.6023932198624706E+00    3.9344929857896589E+00    2.3154349125630493E+00
N2    8.5385565868745221E+00    5.5906005265494292E+00    2.7797888799875845E+00
HN1    3.4699542433133983E+00    4.9903947544517218E+00    2.4504342090308744E+00
HN3    8.6614793115010578E+00    6.1552332763728197E+00    3.6838596201034304E+00
C37    1.2719450800327861E+01    6.2918480409035444E+00    4.2967546057701886E+00
HC1    1.3535850364489157E+01    6.8704214836859308E+00    4.7718223121287746E+00
HC1    1.2132976984419187E+01    7.0171768062071429E+00    3.6510844040821562E+00
C32    7.4785658204714220E+00    8.9788980585247522E+00    6.0671586196070947E+01
HC5    6.8134158635209081E+00    9.1337940534105329E+00    6.1589722581505633E+01
HC5    7.4326767739790309E+00    9.8741424636748540E+00    6.0039174093503554E+01
HC5    6.9614591601110041E+00    8.2078850670081849E+00    6.0294903312320280E+01
C32    9.4637511057291253E+00    9.9797060627438423E+00    1.7566274771466541E+00
HC5    8.8911747746693450E+00    1.0087163225436603E+01    2.7647464496234648E+00
HC5    1.0612556527186035E+01    9.9938850578046612E+00    1.9544509285987324E+00
HC5    9.1475097169717490E+00    1.0845760571775825E+01    1.2824935532160917E+00
C32    9.7955639890261708E+00    8.5698089493949468E+00    5.9808109195436607E+01
HC5    9.1613857054322505E+00    8.2046917882741557E+00    5.9048265742369892E+01
HC5    1.0151746226154227E+01    9.5785324893934725E+00   -7.2211317984212875E-01
HC5    1.0538808724444589E+01    7.7627073697393287E+00    5.9805053901428160E+01
C33    3.6182806225450934E-02    6.3335796610011890E+01    1.3479142189037646E-01
HC4   -9.6130381563139000E-01    6.3454779028489838E+01   -3.4269378967873509E-01
HC4    5.8487324434440058E-01    6.3930682504212299E+01   -5.3512151875595892E-01
HC4    8.0883560493386544E-03    6.2191343888207335E+01    6.0185295272867918E+01
C33   -3.4724095577862746E-01    6.2582281049048404E+01    2.6038963571343272E+00
HC4   -1.1916474737709044E+00    6.2035303886887512E+01    2.3625696000062879E+00
HC4    4.6058198478002305E-01    6.1838889404969208E+01    2.6875440575041769E+00
HC4   -5.2718232017690103E-01    6.2888563252505520E+01    3.6941568792180814E+00
C33   -8.5259885011488723E-01    6.5045256487678103E+01    1.8736925119832120E+00
HC4   -1.8311304891560645E+00    6.4782264020819099E+01    2.2012531817031760E+00
HC4    5.9527968312589344E+01    6.5745055154067032E+01    2.5540833970890104E+00
HC4   -9.7007307227086259E-01    6.5541768548753396E+01    8.7399100442869482E-01
S    1.1748278172293679E+01    5.6001767769768298E+00    5.7121053703532567E+00
AUS    1.0840788803979216E+01    5.4150352394925614E+00    1.3215436539983781E+01
AUS    1.3212615637941996E+01    1.1609035098340628E+00    1.1804484480373139E+01
AUL    1.1116598794779284E+01    3.5362324184128675E+00    1.5937508839484835E+01
AUL    1.2318422547234679E+01    6.7326311577383724E-01    1.4506528801506709E+01
C34    1.0547301636128006E+01    6.0154823305315944E+01    1.7383632781827366E+01
HC3    9.7985332066930297E+00    5.9888665412398971E+01    1.8143086251239318E+01
HC3    9.9866768358093179E+00    4.1208201412197731E-01    1.6479614390719313E+01
C39    1.1239189427627476E+01    5.8771063598987638E+01    1.7016943362729865E+01
H14    1.2203761224183053E+01    5.8898869247152241E+01    1.6518111191911526E+01
H14    1.0604213322251034E+01    5.8156299486493808E+01    1.6336426377133733E+01
C38    1.2882644902701577E+01    5.6034698646386815E+01    1.9140196531335050E+01
H16    1.3990479152491469E+01    5.5962730972581980E+01    1.8993502886473863E+01
C1    1.2413469657650863E+01    5.6827488803074971E+01    1.7844172766786155E+01
N1    1.1502502882123419E+01    5.7869963432492781E+01    1.8067490043250714E+01
HN2    1.0924771803775265E+01    5.7958985493607436E+01    1.8882304808513283E+01
C35    1.2332741809867294E+01    5.4665685158648863E+01    1.9382414087880488E+01
HC6    1.2376576677528623E+01    5.4007736190380918E+01    1.8501255303312252E+01
HC6    1.2917445700435954E+01    5.4115600888798525E+01    2.0183236420138066E+01
C31    1.0846779118159466E+01    5.4684241432141505E+01    1.9775951125950765E+01
HC7    1.0709129234018286E+01    5.5261457461578203E+01    2.0704160561703986E+01
HC7    1.0230764176354143E+01    5.5217756018890242E+01    1.9047341723938843E+01
C310    1.0324517403042245E+01    5.3250477024789156E+01    2.0029372840851121E+01
H15    9.2215672314230073E+00    5.3280980454678229E+01    2.0055776771891178E+01
H15    1.0598860237684809E+01    5.2608341730921651E+01    1.9241448031402019E+01
C3    1.3804462246140201E+01    5.7531446244326617E+01    2.0895033049083551E+01
O2    1.4935889939788995E+01    5.7034666664462463E+01    2.0852747750438059E+01
OS2    1.3497828993262402E+01    5.8517335645246057E+01    2.1802782666920088E+01
C2    1.0042132468939560E+01    5.1884776292589329E+01    2.2129983974611985E+01
O3    8.8203612530566851E+00    5.1912286545096535E+01    2.2113179931357596E+01
OS1    1.0751746891130916E+01    5.1253949644865322E+01    2.3074186323665192E+01
C314    1.0414112305300915E+01    5.0398230958232034E+01    2.4225660650865077E+01
C314    1.4522309349425454E+01    5.9336964975412201E+01    2.2516327356488532E+01
O1    1.2940048032970305E+01    5.6476888424419606E+01    1.6748486057671492E+01
N3    1.0826319338522042E+01    5.2564814696478557E+01    2.1242763093028941E+01
N2    1.2686446071672544E+01    5.6970610671585369E+01    2.0270525137059899E+01
HN1    1.1831698466662280E+01    5.2467900985160377E+01    2.1266911738907513E+01
HN3    1.1776010415967708E+01    5.7522619711308423E+01    2.0367991674835416E+01
C37    1.1441847324900230E+01    1.2160282327738361E+00    1.7827646962278710E+01
HC1    1.0866241901878798E+01    2.1326238393444128E+00    1.8139160944599851E+01
HC1    1.2020757702072309E+01    9.4748635273610526E-01    1.8707718418452611E+01
C32    1.3717971248186656E+01    6.0307085617960752E+01    2.3558503831071576E+01
HC5    1.2972193158445771E+01    8.3032401320432370E-01    2.3084695749327668E+01
HC5    1.3275329160008416E+01    5.9807587842906287E+01    2.4518232548578684E+01
HC5    1.4487572054665513E+01    8.4964473106089400E-01    2.4016727200903148E+01
C32    1.5548600717847890E+01    5.8432092333895305E+01    2.3351465485516169E+01
HC5    1.6444785358619008E+01    5.8201867845109206E+01    2.2800535373053783E+01
HC5    1.5814085275331681E+01    5.8903540936980562E+01    2.4267573585056478E+01
HC5    1.5053033719171189E+01    5.7563059226472433E+01    2.3629302607528906E+01
C32    1.5318595784520786E+01    6.0152802057426882E+01    2.1383626740643887E+01
HC5    1.6172375227084888E+01    5.6881893031092789E-01    2.1742580373197015E+01
HC5    1.5736861530204642E+01    5.9553765025049842E+01    2.0573435952167269E+01
HC5    1.4737149003751233E+01    8.3338174092585438E-01    2.0834207795936450E+01
C33    9.4313861891182249E+00    5.1177883335420745E+01    2.5145212710970778E+01
HC4    9.2296913867823633E+00    5.0517065264940243E+01    2.6046834773791907E+01
HC4    1.0095241096284431E+01    5.2069455184044742E+01    2.5501277745224719E+01
HC4    8.4501897777116657E+00    5.1450398253623085E+01    2.4734516442216165E+01
C33    9.8167308114423975E+00    4.8996852319040393E+01    2.3662809838726719E+01
HC4    9.9070898646857586E+00    4.8206161563625578E+01    2.4480076883835739E+01
HC4    8.7304452657273224E+00    4.9160815458384242E+01    2.3395920091479052E+01
HC4    1.0275174826866085E+01    4.8536927337670058E+01    2.2749331884805599E+01
C33    1.1753570129811404E+01    5.0159178671560284E+01    2.5054078609979168E+01
HC4    1.2486562989014120E+01    5.0034317113793243E+01    2.4238768445385691E+01
HC4    1.2137375201617967E+01    5.1065537832332971E+01    2.5599453895502496E+01
HC4    1.1833870347295122E+01    4.9331602486028999E+01    2.5783030703688237E+01
S    1.2632382118936603E+01    1.7274531166261611E+00    1.6540561966736895E+01
C34    1.1797853975444477E+01    5.6784177478131042E+01    1.3052274517907751E+01
HC3    1.0858232950381781E+01    5.6947285888933500E+01    1.3554407392764340E+01
HC3    1.1495639788830525E+01    5.6850332620051958E+01    1.2003599300816422E+01
C39    1.2475867899266330E+01    5.5443405124182824E+01    1.3478046852350239E+01
H14    1.2165854913841988E+01    5.5169911619155712E+01    1.4482310576119401E+01
H14    1.3579969160911197E+01    5.5586909299423567E+01    1.3513876003339515E+01
C38    1.1984073083147850E+01    5.2004128957144111E+01    1.1609079716194008E+01
H16    1.1448458919218965E+01    5.1291309723143996E+01    1.2254438864949767E+01
C1    1.2539911953112743E+01    5.3051775908665562E+01    1.2607099881136524E+01
N1    1.2115254141526968E+01    5.4363553288516911E+01    1.2535909054458205E+01
HN2    1.1349386137934088E+01    5.4519806911564984E+01    1.1871595013604239E+01
C35    1.3062080463921502E+01    5.1338392961467555E+01    1.0716998024817991E+01
HC6    1.3712134383183235E+01    5.0672258794582163E+01    1.1264316758961508E+01
HC6    1.2486391618212139E+01    5.0661582695554436E+01    1.0093454348673102E+01
C31    1.3926121643416886E+01    5.2111242257489288E+01    9.6685997701099105E+00
HC7    1.4710212547598763E+01    5.1493531959899734E+01    9.1662861159072193E+00
HC7    1.3281496796340667E+01    5.2441565718747277E+01    8.7931203230084272E+00
C310    1.4498316427962653E+01    5.3434651393046401E+01    1.0219315220907589E+01
H15    1.5082072978491395E+01    5.3913134248850582E+01    9.3680994366491195E+00
H15    1.3666695119327990E+01    5.4182566507798057E+01    1.0456327043532495E+01
C3    9.6971582636061822E+00    5.3061663487997102E+01    1.1355272029847677E+01
O2    9.4916748835787139E+00    5.2963137836247718E+01    1.2520489560499266E+01
OS2    8.6956383183129322E+00    5.3309725592579888E+01    1.0385769801704310E+01
C2    1.6829871748530959E+01    5.3366575252520846E+01    1.1366554379104230E+01
O3    1.7515070456621707E+01    5.3195171197610343E+01    1.0354829889460659E+01
OS1    1.7269119849758749E+01    5.3641117863938128E+01    1.2610179134130286E+01